unknown
(model
; cardinality of BoundSet is 1
(declare-sort BoundSet 0)
; rep: @uc_BoundSet_0
; cardinality of UnboundSet is 1
(declare-sort UnboundSet 0)
(declare-fun groundTerm_2 () UnboundSet)
(define-fun IsInexpensive ((BOUND_VARIABLE_382 BoundSet)) Bool true)
(define-fun RequiresNoMaintenance ((BOUND_VARIABLE_382 BoundSet)) Bool true)
(define-fun IsEasiest ((BOUND_VARIABLE_382 BoundSet)) Bool false)
(define-fun CanBeKept ((BOUND_VARIABLE_382 BoundSet)) Bool false)
)
sat
(model
; cardinality of BoundSet is 1
(declare-sort BoundSet 0)
; rep: @uc_BoundSet_0
; cardinality of UnboundSet is 1
(declare-sort UnboundSet 0)
(declare-fun groundTerm_4 () UnboundSet)
(define-fun IsInexpensive ((BOUND_VARIABLE_406 BoundSet)) Bool true)
(define-fun RequiresNoMaintenance ((BOUND_VARIABLE_406 BoundSet)) Bool true)
(define-fun IsEasiest ((BOUND_VARIABLE_406 BoundSet)) Bool false)
(define-fun CanBeKept ((BOUND_VARIABLE_406 BoundSet)) Bool false)
)
